30805
24,29,31,242,447,459,637,644,691,710,893,931,955,982,1015,1034,1046,1072,1097,1204,1267,1383,1424,1880,1898,1980,1986,2105,2231,2284,2286,2324,2369,2563,2683,2706,2800,2859,2914,2958,3026,3125,3148,3259,3402,3438,3565,3575,3738,3761,3813,3835,3906,4105,4107,4403,4505,4555,4556,4827
